benchmarks_vrp/CMT5/tsp_classic/CMT5_16.vrp
NAME: CMT5_16
TYPE: CVRP
COMMENT: 1291.29 - Cluster Nr.16
DIMENSION: 8
CAPACITY: 200
EDGE_WEIGHT_TYPE: EUC_2D
NODE_COORD_TYPE: TWOD_COORDS
NODE_COORD_SECTION: 
3 43 67
2 40 66
4 47 66
7 49 73
6 45 65
8 37 69
1 62 77
5 35 35
DEPOT_SECTION: 
5
-1
DEMAND_SECTION: 
2 26
8 11
7 25
1 20
3 14
6 9
5 0
4 24
EOF
