benchmarks_vrp/CMT5/tsp_classic/CMT5_16.tour
NAME: CMT5_16 solution
TYPE: TOUR
TOUR_SECTION:
5 6 4 1 7 3 2 8 -1
-1
EOF